<?xml version = "1.0" standalone="yes"?>
<!-- This file has been generated by DOcplex version 2.23.222  -->
<CPLEXSolution version="1.0">
 <header
   problemName="CVRP"
   objectiveValue="12266.1"
  />
 <variables>
  <variable name="x_0_3" index="2" value="1.00000"/>
  <variable name="x_0_4" index="3" value="1.00000"/>
  <variable name="x_0_5" index="4" value="1.00000"/>
  <variable name="x_0_9" index="8" value="1.00000"/>
  <variable name="x_0_11" index="10" value="1.00000"/>
  <variable name="x_0_13" index="12" value="1.00000"/>
  <variable name="x_0_14" index="13" value="1.00000"/>
  <variable name="x_1_0" index="14" value="1.00000"/>
  <variable name="x_2_0" index="28" value="1.00000"/>
  <variable name="x_3_8" index="49" value="1.00000"/>
  <variable name="x_4_7" index="62" value="1.00000"/>
  <variable name="x_5_6" index="75" value="1.00000"/>
  <variable name="x_6_1" index="85" value="1.00000"/>
  <variable name="x_7_12" index="109" value="1.00000"/>
  <variable name="x_8_0" index="112" value="1.00000"/>
  <variable name="x_9_2" index="128" value="1.00000"/>
  <variable name="x_10_0" index="140" value="1.00000"/>
  <variable name="x_11_10" index="164" value="1.00000"/>
  <variable name="x_12_0" index="168" value="1.00000"/>
  <variable name="x_13_0" index="182" value="1.00000"/>
  <variable name="x_14_0" index="196" value="1.00000"/>
  <variable name="u_1" index="210" value="71.00000"/>
  <variable name="u_2" index="211" value="58.00000"/>
  <variable name="u_3" index="212" value="63.00000"/>
  <variable name="u_4" index="213" value="8.00000"/>
  <variable name="u_5" index="214" value="49.00000"/>
  <variable name="u_6" index="215" value="51.00000"/>
  <variable name="u_7" index="216" value="51.00000"/>
  <variable name="u_8" index="217" value="70.00000"/>
  <variable name="u_9" index="218" value="28.00000"/>
  <variable name="u_10" index="219" value="54.00000"/>
  <variable name="u_11" index="220" value="44.00000"/>
  <variable name="u_12" index="221" value="66.00000"/>
  <variable name="u_13" index="222" value="70.00000"/>
  <variable name="u_14" index="223" value="72.00000"/>
 </variables>
</CPLEXSolution>
